
[Main]	Assistant_ID	AssistantItem_Index	Category	grade	Level	SummonDuration	Summon_LV	AttackUse	PassiveSingle	PassiveParty	TriggerSingle	ActiveParty	MoveSpeed
0	1	33555569	1	1	1	900000	140	1	4	0	0	0	421
1	2	33555570	1	1	1	900000	140	1	8	0	0	0	400
2	3	33555571	1	1	1	900000	140	1	12	0	0	0	400
3	4	33555572	1	1	1	900000	140	1	16	0	0	0	400
4	5	33555573	1	1	1	900000	140	1	20	0	0	0	400
5	6	33555574	1	1	1	900000	140	1	24	0	0	0	400
6	7	33555575	2	1	1	900000	100	1	129	0	0	0	390
7	8	33555576	2	1	1	900000	100	0	57	0	66	0	390
8	9	33555577	2	1	1	900000	100	1	0	0	0	0	390
9	10	33555578	2	1	1	900000	100	0	58	0	0	32	390
10	11	33555579	2	1	1	900000	100	0	59	0	0	36	390
11	12	33555580	2	1	1	900000	100	1	60	0	130	0	353
12	13	33555581	2	1	1	900000	100	1	61	62	0	63	353
13	14	33555582	2	1	1	900000	100	1	64	0	131	65	400
14	15	33555583	2	1	1	900000	100	1	0	0	0	0	390
15	16	33555584	2	1	1	900000	100	0	67	0	0	28	390
16	17	33555585	2	1	1	900000	100	1	0	0	0	0	390
17	18	33555586	2	1	1	900000	100	0	58	0	0	32	390
18	19	33555587	2	1	1	900000	100	0	59	0	0	36	390
19	20	33555588	3	1	1	900000	115	1	0	37	0	41	400
20	21	33555589	3	1	1	900000	135	1	0	42	0	46	369
21	22	33555590	3	1	1	900000	125	1	0	47	0	51	400
22	23	33555591	3	1	1	900000	145	1	0	68	0	72	436
23	24	33555592	3	1	1	900000	155	1	0	73	0	77	330
24	25	33555593	3	1	1	900000	165	1	0	78	0	82	569
25	26	33555561	4	1	1	900000	100	0	0	0	105	0	390
26	26	33555561	4	1	2	900000	100	0	0	0	105	0	390
27	26	33555561	4	1	3	900000	100	0	0	0	105	0	390
28	26	33555561	4	1	4	900000	100	0	0	0	105	0	390
29	26	33555561	4	1	5	900000	100	0	0	0	105	0	390
30	26	33555561	4	1	6	900000	100	0	0	0	105	0	390
31	26	33555561	4	1	7	900000	100	0	0	0	105	0	390
32	26	33555561	4	1	8	900000	100	0	0	0	105	0	390
33	26	33555561	4	1	9	900000	100	0	0	0	105	0	390
34	26	33555561	4	1	10	900000	100	0	0	0	105	0	390
35	26	33555561	4	2	1	900000	100	0	0	0	106	0	390
36	26	33555561	4	2	2	900000	100	0	0	0	106	0	390
37	26	33555561	4	2	3	900000	100	0	0	0	106	0	390
38	26	33555561	4	2	4	900000	100	0	0	0	106	0	390
39	26	33555561	4	2	5	900000	100	0	0	0	107	0	390
40	26	33555561	4	2	6	900000	100	0	0	0	107	0	390
41	26	33555561	4	2	7	900000	100	0	0	0	107	0	390
42	26	33555561	4	2	8	900000	100	0	0	0	108	0	390
43	26	33555561	4	2	9	900000	100	0	0	0	108	0	390
44	26	33555561	4	2	10	900000	100	0	0	0	108	0	390
45	26	33555561	4	3	1	900000	100	0	0	0	109	0	390
46	26	33555561	4	3	2	900000	100	0	0	0	109	0	390
47	26	33555561	4	3	3	900000	100	0	0	0	109	0	390
48	26	33555561	4	3	4	900000	100	0	0	0	110	0	390
49	26	33555561	4	3	5	900000	100	0	0	0	110	0	390
50	26	33555561	4	3	6	900000	100	0	0	0	111	0	390
51	26	33555561	4	3	7	900000	100	0	0	0	111	0	390
52	26	33555561	4	3	8	900000	100	0	0	0	112	0	390
53	26	33555561	4	3	9	900000	100	0	0	0	112	0	390
54	26	33555561	4	3	10	900000	100	0	0	0	113	0	390
55	26	33555561	4	4	1	900000	100	0	0	0	114	0	390
56	26	33555561	4	4	2	900000	100	0	0	0	114	0	390
57	26	33555561	4	4	3	900000	100	0	0	0	114	0	390
58	26	33555561	4	4	4	900000	100	0	0	0	114	0	390
59	26	33555561	4	4	5	900000	100	0	0	0	114	0	390
60	26	33555561	4	4	6	900000	100	0	0	0	115	0	390
61	26	33555561	4	4	7	900000	100	0	0	0	115	0	390
62	26	33555561	4	4	8	900000	100	0	0	0	115	0	390
63	26	33555561	4	4	9	900000	100	0	0	0	115	0	390
64	26	33555561	4	4	10	900000	100	0	0	0	116	0	390
65	27	33555562	4	1	1	900000	100	0	0	0	83	0	390
66	27	33555562	4	1	2	900000	100	0	0	0	83	0	390
67	27	33555562	4	1	3	900000	100	0	0	0	83	0	390
68	27	33555562	4	1	4	900000	100	0	0	0	83	0	390
69	27	33555562	4	1	5	900000	100	0	0	0	83	0	390
70	27	33555562	4	1	6	900000	100	0	0	0	83	0	390
71	27	33555562	4	1	7	900000	100	0	0	0	83	0	390
72	27	33555562	4	1	8	900000	100	0	0	0	83	0	390
73	27	33555562	4	1	9	900000	100	0	0	0	83	0	390
74	27	33555562	4	1	10	900000	100	0	0	0	83	0	390
75	27	33555562	4	2	1	900000	100	0	0	0	84	0	390
76	27	33555562	4	2	2	900000	100	0	0	0	84	0	390
77	27	33555562	4	2	3	900000	100	0	0	0	84	0	390
78	27	33555562	4	2	4	900000	100	0	0	0	84	0	390
79	27	33555562	4	2	5	900000	100	0	0	0	84	0	390
80	27	33555562	4	2	6	900000	100	0	0	0	85	0	390
81	27	33555562	4	2	7	900000	100	0	0	0	85	0	390
82	27	33555562	4	2	8	900000	100	0	0	0	85	0	390
83	27	33555562	4	2	9	900000	100	0	0	0	85	0	390
84	27	33555562	4	2	10	900000	100	0	0	0	85	0	390
85	27	33555562	4	3	1	900000	100	0	0	0	86	0	390
86	27	33555562	4	3	2	900000	100	0	0	0	86	0	390
87	27	33555562	4	3	3	900000	100	0	0	0	86	0	390
88	27	33555562	4	3	4	900000	100	0	0	0	86	0	390
89	27	33555562	4	3	5	900000	100	0	0	0	86	0	390
90	27	33555562	4	3	6	900000	100	0	0	0	87	0	390
91	27	33555562	4	3	7	900000	100	0	0	0	87	0	390
92	27	33555562	4	3	8	900000	100	0	0	0	87	0	390
93	27	33555562	4	3	9	900000	100	0	0	0	87	0	390
94	27	33555562	4	3	10	900000	100	0	0	0	88	0	390
95	27	33555562	4	4	1	900000	100	0	0	0	89	0	390
96	27	33555562	4	4	2	900000	100	0	0	0	89	0	390
97	27	33555562	4	4	3	900000	100	0	0	0	89	0	390
98	27	33555562	4	4	4	900000	100	0	0	0	90	0	390
99	27	33555562	4	4	5	900000	100	0	0	0	90	0	390
100	27	33555562	4	4	6	900000	100	0	0	0	91	0	390
101	27	33555562	4	4	7	900000	100	0	0	0	92	0	390
102	27	33555562	4	4	8	900000	100	0	0	0	92	0	390
103	27	33555562	4	4	9	900000	100	0	0	0	92	0	390
104	27	33555562	4	4	10	900000	100	0	0	0	93	0	390
105	28	33555563	4	1	1	900000	100	0	0	0	117	0	390
106	28	33555563	4	1	2	900000	100	0	0	0	117	0	390
107	28	33555563	4	1	3	900000	100	0	0	0	117	0	390
108	28	33555563	4	1	4	900000	100	0	0	0	117	0	390
109	28	33555563	4	1	5	900000	100	0	0	0	117	0	390
110	28	33555563	4	1	6	900000	100	0	0	0	117	0	390
111	28	33555563	4	1	7	900000	100	0	0	0	117	0	390
112	28	33555563	4	1	8	900000	100	0	0	0	117	0	390
113	28	33555563	4	1	9	900000	100	0	0	0	117	0	390
114	28	33555563	4	1	10	900000	100	0	0	0	117	0	390
115	28	33555563	4	2	1	900000	100	0	0	0	118	0	390
116	28	33555563	4	2	2	900000	100	0	0	0	118	0	390
117	28	33555563	4	2	3	900000	100	0	0	0	118	0	390
118	28	33555563	4	2	4	900000	100	0	0	0	118	0	390
119	28	33555563	4	2	5	900000	100	0	0	0	119	0	390
120	28	33555563	4	2	6	900000	100	0	0	0	119	0	390
121	28	33555563	4	2	7	900000	100	0	0	0	119	0	390
122	28	33555563	4	2	8	900000	100	0	0	0	120	0	390
123	28	33555563	4	2	9	900000	100	0	0	0	120	0	390
124	28	33555563	4	2	10	900000	100	0	0	0	120	0	390
125	28	33555563	4	3	1	900000	100	0	0	0	121	0	390
126	28	33555563	4	3	2	900000	100	0	0	0	121	0	390
127	28	33555563	4	3	3	900000	100	0	0	0	121	0	390
128	28	33555563	4	3	4	900000	100	0	0	0	122	0	390
129	28	33555563	4	3	5	900000	100	0	0	0	122	0	390
130	28	33555563	4	3	6	900000	100	0	0	0	123	0	390
131	28	33555563	4	3	7	900000	100	0	0	0	123	0	390
132	28	33555563	4	3	8	900000	100	0	0	0	124	0	390
133	28	33555563	4	3	9	900000	100	0	0	0	124	0	390
134	28	33555563	4	3	10	900000	100	0	0	0	125	0	390
135	28	33555563	4	4	1	900000	100	0	0	0	126	0	390
136	28	33555563	4	4	2	900000	100	0	0	0	126	0	390
137	28	33555563	4	4	3	900000	100	0	0	0	126	0	390
138	28	33555563	4	4	4	900000	100	0	0	0	126	0	390
139	28	33555563	4	4	5	900000	100	0	0	0	126	0	390
140	28	33555563	4	4	6	900000	100	0	0	0	127	0	390
141	28	33555563	4	4	7	900000	100	0	0	0	127	0	390
142	28	33555563	4	4	8	900000	100	0	0	0	127	0	390
143	28	33555563	4	4	9	900000	100	0	0	0	127	0	390
144	28	33555563	4	4	10	900000	100	0	0	0	128	0	390
145	29	33555564	4	1	1	900000	100	0	0	0	94	0	390
146	29	33555564	4	1	2	900000	100	0	0	0	94	0	390
147	29	33555564	4	1	3	900000	100	0	0	0	94	0	390
148	29	33555564	4	1	4	900000	100	0	0	0	94	0	390
149	29	33555564	4	1	5	900000	100	0	0	0	94	0	390
150	29	33555564	4	1	6	900000	100	0	0	0	94	0	390
151	29	33555564	4	1	7	900000	100	0	0	0	94	0	390
152	29	33555564	4	1	8	900000	100	0	0	0	94	0	390
153	29	33555564	4	1	9	900000	100	0	0	0	94	0	390
154	29	33555564	4	1	10	900000	100	0	0	0	94	0	390
155	29	33555564	4	2	1	900000	100	0	0	0	95	0	390
156	29	33555564	4	2	2	900000	100	0	0	0	95	0	390
157	29	33555564	4	2	3	900000	100	0	0	0	95	0	390
158	29	33555564	4	2	4	900000	100	0	0	0	95	0	390
159	29	33555564	4	2	5	900000	100	0	0	0	95	0	390
160	29	33555564	4	2	6	900000	100	0	0	0	96	0	390
161	29	33555564	4	2	7	900000	100	0	0	0	96	0	390
162	29	33555564	4	2	8	900000	100	0	0	0	96	0	390
163	29	33555564	4	2	9	900000	100	0	0	0	96	0	390
164	29	33555564	4	2	10	900000	100	0	0	0	96	0	390
165	29	33555564	4	3	1	900000	100	0	0	0	97	0	390
166	29	33555564	4	3	2	900000	100	0	0	0	97	0	390
167	29	33555564	4	3	3	900000	100	0	0	0	97	0	390
168	29	33555564	4	3	4	900000	100	0	0	0	97	0	390
169	29	33555564	4	3	5	900000	100	0	0	0	97	0	390
170	29	33555564	4	3	6	900000	100	0	0	0	98	0	390
171	29	33555564	4	3	7	900000	100	0	0	0	98	0	390
172	29	33555564	4	3	8	900000	100	0	0	0	98	0	390
173	29	33555564	4	3	9	900000	100	0	0	0	98	0	390
174	29	33555564	4	3	10	900000	100	0	0	0	99	0	390
175	29	33555564	4	4	1	900000	100	0	0	0	100	0	390
176	29	33555564	4	4	2	900000	100	0	0	0	100	0	390
177	29	33555564	4	4	3	900000	100	0	0	0	100	0	390
178	29	33555564	4	4	4	900000	100	0	0	0	101	0	390
179	29	33555564	4	4	5	900000	100	0	0	0	101	0	390
180	29	33555564	4	4	6	900000	100	0	0	0	102	0	390
181	29	33555564	4	4	7	900000	100	0	0	0	103	0	390
182	29	33555564	4	4	8	900000	100	0	0	0	103	0	390
183	29	33555564	4	4	9	900000	100	0	0	0	103	0	390
184	29	33555564	4	4	10	900000	100	0	0	0	104	0	390

[Attack]	Assistant_ID	grade	lv	Base_Value	AR	Critical_Rate	Critical_Damage	Attack1_Reach	Attack1_Range	Attack1_Type	Attack1_Delay	Attack2_Reach	Attack2_Range	Attack2_Type	Attack2_Delay
0	1	1	1	750	50	10	10	1	1	0	2003	6	1	1	3000
1	2	1	1	700	80	15	50	1	1	0	2200	3	3	1	2206
2	3	1	1	750	60	10	10	8	1	0	2552	8	1	1	3298
3	4	1	1	770	70	20	50	8	1	0	2009	8	1	1	2546
4	5	1	1	650	50	30	100	5	1	0	3503	2	3	1	2500
5	6	1	1	700	60	20	45	5	1	0	2003	2	3	1	2690
6	7	1	1	2000	99	75	500	1	2	1	3000	0	2	1	3500
7	9	1	1	1680	70	5	10	1	2	1	3000	0	2	1	3500
8	20	1	1	950	75	20	50	4	1	0	3400	2	1	1	3947
9	21	1	1	1440	75	10	20	9	1	0	3075	2	1	1	3332
10	22	1	1	1120	75	20	50	4	1	0	2206	8	3	1	2690
11	12	1	1	1000	90	20	50	1	1	0	2993	1	1	1	3000
12	13	1	1	700	90	20	50	1	1	0	2993	1	1	1	3000
13	14	1	1	1000	100	30	200	1	1	0	2500	0	0	0	0
14	15	1	1	980	50	75	250	1	2	1	3000	0	2	1	3500
15	17	1	1	1680	70	5	10	1	2	1	3000	0	2	1	3500
16	23	1	1	1140	75	20	20	2	2	1	2500	1	1	0	2200
17	24	1	1	1445	75	20	40	5	1	0	3233	4	2	1	3000
18	25	1	1	1540	75	20	20	3	1	0	3200	3	2	1	3600

[Buff]	AssistantSkill_ID	Buff_Group	Order	Skill_Type	TriggerType	TriggerValue	ForceCode_ID	Value	Limit_Value	Target	DurationTime	CoolTime
0	1	1	0	1	0	0	3	5,0	0	1	8000	2000
1	2	1	0	1	0	0	3	7,0	0	1	8000	2000
2	2	1	1	1	0	0	6	20,0	0	1	8000	2000
3	3	1	0	1	0	0	3	10,0	0	1	8000	2000
4	3	1	1	1	0	0	6	50,0	0	1	8000	2000
5	4	1	0	1	0	0	3	15,0	0	1	8000	2000
6	4	1	1	1	0	0	6	80,0	0	1	8000	2000
7	5	2	0	1	0	0	30	1,0	0	1	8000	2000
8	6	2	0	1	0	0	30	1,0	0	1	8000	2000
9	6	2	1	1	0	0	6	20,0	0	1	8000	2000
10	7	2	0	1	0	0	30	2,0	0	1	8000	2000
11	7	2	1	1	0	0	6	50,0	0	1	8000	2000
12	8	2	0	1	0	0	30	3,0	0	1	8000	2000
13	8	2	1	1	0	0	6	80,0	0	1	8000	2000
14	9	3	0	1	0	0	4	5,0	0	1	8000	2000
15	10	3	0	1	0	0	4	7,0	0	1	8000	2000
16	10	3	1	1	0	0	6	20,0	0	1	8000	2000
17	11	3	0	1	0	0	4	10,0	0	1	8000	2000
18	11	3	1	1	0	0	6	50,0	0	1	8000	2000
19	12	3	0	1	0	0	4	15,0	0	1	8000	2000
20	12	3	1	1	0	0	6	80,0	0	1	8000	2000
21	13	4	0	1	0	0	32	1,0	0	1	8000	2000
22	14	4	0	1	0	0	32	1,0	0	1	8000	2000
23	14	4	1	1	0	0	6	20,0	0	1	8000	2000
24	15	4	0	1	0	0	32	2,0	0	1	8000	2000
25	15	4	1	1	0	0	6	50,0	0	1	8000	2000
26	16	4	0	1	0	0	32	3,0	0	1	8000	2000
27	16	4	1	1	0	0	6	80,0	0	1	8000	2000
28	17	5	0	1	0	0	5	10,0	0	1	8000	2000
29	18	5	0	1	0	0	5	15,0	0	1	8000	2000
30	18	5	1	1	0	0	7	50,0	0	1	8000	2000
31	19	5	0	1	0	0	5	20,0	0	1	8000	2000
32	19	5	1	1	0	0	7	100,0	0	1	8000	2000
33	20	5	0	1	0	0	5	30,0	0	1	8000	2000
34	20	5	1	1	0	0	7	200,0	0	1	8000	2000
35	21	6	0	1	0	0	1	50,0	0	1	8000	2000
36	22	6	0	1	0	0	1	150,0	0	1	8000	2000
37	22	6	1	1	0	0	2	50,0	0	1	8000	2000
38	23	6	0	1	0	0	1	200,0	0	1	8000	2000
39	23	6	1	1	0	0	2	100,0	0	1	8000	2000
40	24	6	0	1	0	0	1	300,0	0	1	8000	2000
41	24	6	1	1	0	0	2	150,0	0	1	8000	2000
42	25	7	0	2	0	0	88	50,0	0	2	30000	300000
43	26	7	0	2	0	0	88	100,0	0	2	30000	300000
44	27	7	0	2	0	0	88	150,0	0	2	30000	300000
45	28	7	0	2	0	0	88	200,0	0	2	30000	300000
46	29	8	0	2	0	0	58	5,0	20	2	30000	180000
47	30	8	0	2	0	0	58	5,0	30	2	30000	180000
48	31	8	0	2	0	0	58	5,0	40	2	30000	180000
49	32	8	0	2	0	0	58	5,0	50	2	30000	180000
50	33	9	0	2	0	0	59	5,0	30	2	45000	180000
51	34	9	0	2	0	0	59	5,0	45	2	45000	180000
52	35	9	0	2	0	0	59	5,0	60	2	45000	180000
53	36	9	0	2	0	0	59	5,0	75	2	45000	180000
54	37	10	0	1	0	0	34	1,0	0	2	8000	2000
55	38	11	0	2	0	0	12	5,0	0	2	45000	120000
56	39	11	0	2	0	0	12	10,0	0	2	45000	120000
57	40	11	0	2	0	0	12	15,0	0	2	45000	120000
58	41	11	0	2	0	0	12	20,0	0	2	45000	120000
59	42	12	0	1	0	0	8	3,0	0	2	8000	2000
60	43	13	0	2	0	0	9	1,0	0	2	30000	120000
61	44	13	0	2	0	0	9	2,0	0	2	30000	120000
62	45	13	0	2	0	0	9	3,0	0	2	30000	120000
63	46	13	0	2	0	0	9	5,0	0	2	30000	120000
64	47	14	0	1	0	0	2	50,0	0	2	8000	2000
65	48	15	0	2	0	0	1	50,0	0	2	60000	120000
66	49	15	0	2	0	0	1	100,0	0	2	60000	120000
67	50	15	0	2	0	0	1	300,0	0	2	60000	120000
68	51	15	0	2	0	0	1	500,0	0	2	60000	120000
69	52	16	0	1	0	0	37	3,0	0	2	8000	2000
70	53	17	0	3	1	50	63	100,0	0	1	0	30000
71	54	17	0	3	1	50	63	250,0	0	1	0	30000
72	55	17	0	3	1	50	63	500,0	0	1	0	30000
73	56	17	0	3	1	50	63	1000,0	0	1	0	30000
74	57	18	0	1	0	0	88	50,0	0	1	8000	2000
75	58	19	0	1	0	0	1	100,0	0	1	8000	2000
76	59	20	0	1	0	0	1	100,0	0	1	8000	2000
77	60	21	0	1	0	0	3	20,0	0	1	8000	2000
78	60	21	1	1	0	0	4	20,0	0	1	8000	2000
79	60	21	2	1	0	0	6	50,0	0	1	8000	2000
80	60	21	3	1	0	0	30	2,0	0	1	8000	2000
81	60	21	4	1	0	0	32	2,0	0	1	8000	2000
82	61	22	0	1	0	0	5	30,0	0	1	8000	2000
83	61	22	1	1	0	0	7	100,0	0	1	8000	2000
84	61	22	2	1	0	0	1	100,0	0	1	8000	2000
85	61	22	3	1	0	0	78	20,0	0	1	8000	2000
86	62	23	0	1	0	0	1	100,0	0	2	8000	2000
87	63	24	0	2	0	0	88	100,0	0	2	30000	280000
88	64	25	0	1	0	0	3	10,0	0	1	8000	2000
89	64	25	1	1	0	0	4	10,0	0	1	8000	2000
90	64	25	2	1	0	0	5	10,0	0	1	8000	2000
91	64	25	3	1	0	0	8	1,0	0	1	8000	2000
92	64	25	4	1	0	0	114	1,0	0	1	8000	2000
93	65	26	0	2	0	0	8	5,0	0	2	30000	280000
94	66	27	0	3	1	50	63	400,0	0	1	0	20000
95	67	28	0	1	0	0	1	100,0	0	1	8000	2000
96	68	29	0	1	0	0	1	50,0	0	2	8000	2000
97	69	30	0	2	0	0	37	20,0	0	2	60000	120000
98	70	30	0	2	0	0	37	35,0	0	2	60000	120000
99	71	30	0	2	0	0	37	55,0	0	2	60000	120000
100	72	30	0	2	0	0	37	80,0	0	2	60000	120000
101	73	31	0	1	0	0	5	5,0	0	2	8000	2000
102	74	32	0	2	0	0	58	2,0	10	2	30000	120000
103	75	32	0	2	0	0	58	2,0	20	2	30000	120000
104	76	32	0	2	0	0	58	2,0	30	2	30000	120000
105	77	32	0	2	0	0	58	2,0	40	2	30000	120000
106	78	33	0	1	0	0	3	5,0	0	2	8000	2000
107	78	33	1	1	0	0	4	5,0	0	2	8000	2000
108	79	34	0	2	0	0	59	2,0	20	2	45000	120000
109	80	34	0	2	0	0	59	2,0	30	2	45000	120000
110	81	34	0	2	0	0	59	2,0	40	2	45000	120000
111	82	34	0	2	0	0	59	2,0	50	2	45000	120000
112	83	35	0	3	2	2	113	10,1	0	1	8000	2000
113	83	35	1	3	2	2	6	10,2	0	1	8000	2000
114	84	36	0	3	2	2	113	20,1	0	1	8000	2000
115	84	36	1	3	2	2	6	30,2	0	1	8000	2000
116	84	36	2	3	2	2	8	1,0	0	1	8000	2000
117	85	37	0	3	2	2	113	20,1	0	1	8000	2000
118	85	37	1	3	2	2	6	30,2	0	1	8000	2000
119	85	37	2	3	2	2	8	2,0	0	1	8000	2000
120	86	38	0	3	2	2	113	30,1	0	1	8000	2000
121	86	38	1	3	2	2	6	50,2	0	1	8000	2000
122	86	38	2	3	2	2	8	3,0	0	1	8000	2000
123	86	38	3	3	2	2	114	2,0	0	1	8000	2000
124	86	38	4	3	2	2	79	12,2	0	1	8000	2000
125	87	39	0	3	2	2	113	30,1	0	1	8000	2000
126	87	39	1	3	2	2	6	50,2	0	1	8000	2000
127	87	39	2	3	2	2	8	4,0	0	1	8000	2000
128	87	39	3	3	2	2	114	3,0	0	1	8000	2000
129	87	39	4	3	2	2	79	12,2	0	1	8000	2000
130	88	40	0	3	2	2	113	40,0	0	1	8000	2000
131	88	40	1	3	2	2	6	50,2	0	1	8000	2000
132	88	40	2	3	2	2	8	4,0	0	1	8000	2000
133	88	40	3	3	2	2	114	3,0	0	1	8000	2000
134	88	40	4	3	2	2	79	12,2	0	1	8000	2000
135	89	41	0	3	2	2	113	42,2	0	1	8000	2000
136	89	41	1	3	2	2	6	70,3	0	1	8000	2000
137	89	41	2	3	2	2	8	5,0	0	1	8000	2000
138	89	41	3	3	2	2	114	4,0	0	1	8000	2000
139	89	41	4	3	2	2	79	35,5	0	1	8000	2000
140	89	41	5	3	2	2	80	1,1	0	1	8000	2000
141	90	42	0	3	2	2	113	42,2	0	1	8000	2000
142	90	42	1	3	2	2	6	70,3	0	1	8000	2000
143	90	42	2	3	2	2	8	6,0	0	1	8000	2000
144	90	42	3	3	2	2	114	4,0	0	1	8000	2000
145	90	42	4	3	2	2	79	35,5	0	1	8000	2000
146	90	42	5	3	2	2	80	1,1	0	1	8000	2000
147	91	43	0	3	2	2	113	42,2	0	1	8000	2000
148	91	43	1	3	2	2	6	70,3	0	1	8000	2000
149	91	43	2	3	2	2	8	6,0	0	1	8000	2000
150	91	43	3	3	2	2	114	5,0	0	1	8000	2000
151	91	43	4	3	2	2	79	35,5	0	1	8000	2000
152	91	43	5	3	2	2	80	1,1	0	1	8000	2000
153	92	44	0	3	2	2	113	42,2	0	1	8000	2000
154	92	44	1	3	2	2	6	64,4	0	1	8000	2000
155	92	44	2	3	2	2	8	7,0	0	1	8000	2000
156	92	44	3	3	2	2	114	5,0	0	1	8000	2000
157	92	44	4	3	2	2	79	35,5	0	1	8000	2000
158	92	44	5	3	2	2	80	1,1	0	1	8000	2000
159	93	45	0	3	2	2	113	42,2	0	1	8000	2000
160	93	45	1	3	2	2	6	100,0	0	1	8000	2000
161	93	45	2	3	2	2	8	8,0	0	1	8000	2000
162	93	45	3	3	2	2	114	6,0	0	1	8000	2000
163	93	45	4	3	2	2	79	35,5	0	1	8000	2000
164	93	45	5	3	2	2	80	1,1	0	1	8000	2000
165	94	46	0	3	2	3	113	10,1	0	1	8000	2000
166	94	46	1	3	2	3	6	10,2	0	1	8000	2000
167	95	47	0	3	2	3	113	20,1	0	1	8000	2000
168	95	47	1	3	2	3	6	30,2	0	1	8000	2000
169	95	47	2	3	2	3	8	1,0	0	1	8000	2000
170	96	48	0	3	2	3	113	20,1	0	1	8000	2000
171	96	48	1	3	2	3	6	30,2	0	1	8000	2000
172	96	48	2	3	2	3	8	2,0	0	1	8000	2000
173	97	49	0	3	2	3	113	30,1	0	1	8000	2000
174	97	49	1	3	2	3	6	50,2	0	1	8000	2000
175	97	49	2	3	2	3	8	3,0	0	1	8000	2000
176	97	49	3	3	2	3	114	2,0	0	1	8000	2000
177	97	49	4	3	2	3	79	12,2	0	1	8000	2000
178	98	50	0	3	2	3	113	30,1	0	1	8000	2000
179	98	50	1	3	2	3	6	50,2	0	1	8000	2000
180	98	50	2	3	2	3	8	4,0	0	1	8000	2000
181	98	50	3	3	2	3	114	3,0	0	1	8000	2000
182	98	50	4	3	2	3	79	12,2	0	1	8000	2000
183	99	51	0	3	2	3	113	40,0	0	1	8000	2000
184	99	51	1	3	2	3	6	50,2	0	1	8000	2000
185	99	51	2	3	2	3	8	4,0	0	1	8000	2000
186	99	51	3	3	2	3	114	3,0	0	1	8000	2000
187	99	51	4	3	2	3	79	12,2	0	1	8000	2000
188	100	52	0	3	2	3	113	42,2	0	1	8000	2000
189	100	52	1	3	2	3	6	70,3	0	1	8000	2000
190	100	52	2	3	2	3	8	5,0	0	1	8000	2000
191	100	52	3	3	2	3	114	4,0	0	1	8000	2000
192	100	52	4	3	2	3	79	35,5	0	1	8000	2000
193	100	52	5	3	2	3	80	1,1	0	1	8000	2000
194	101	53	0	3	2	3	113	42,2	0	1	8000	2000
195	101	53	1	3	2	3	6	70,3	0	1	8000	2000
196	101	53	2	3	2	3	8	6,0	0	1	8000	2000
197	101	53	3	3	2	3	114	4,0	0	1	8000	2000
198	101	53	4	3	2	3	79	35,5	0	1	8000	2000
199	101	53	5	3	2	3	80	1,1	0	1	8000	2000
200	102	54	0	3	2	3	113	42,2	0	1	8000	2000
201	102	54	1	3	2	3	6	70,3	0	1	8000	2000
202	102	54	2	3	2	3	8	6,0	0	1	8000	2000
203	102	54	3	3	2	3	114	5,0	0	1	8000	2000
204	102	54	4	3	2	3	79	35,5	0	1	8000	2000
205	102	54	5	3	2	3	80	1,1	0	1	8000	2000
206	103	55	0	3	2	3	113	42,2	0	1	8000	2000
207	103	55	1	3	2	3	6	64,4	0	1	8000	2000
208	103	55	2	3	2	3	8	7,0	0	1	8000	2000
209	103	55	3	3	2	3	114	5,0	0	1	8000	2000
210	103	55	4	3	2	3	79	35,5	0	1	8000	2000
211	103	55	5	3	2	3	80	1,1	0	1	8000	2000
212	104	56	0	3	2	3	113	42,2	0	1	8000	2000
213	104	56	1	3	2	3	6	100,0	0	1	8000	2000
214	104	56	2	3	2	3	8	8,0	0	1	8000	2000
215	104	56	3	3	2	3	114	6,0	0	1	8000	2000
216	104	56	4	3	2	3	79	35,5	0	1	8000	2000
217	104	56	5	3	2	3	80	1,1	0	1	8000	2000
218	105	57	0	3	2	2	5	10,1	0	1	8000	2000
219	105	57	1	3	2	2	7	12,2	0	1	8000	2000
220	106	58	0	3	2	2	5	20,2	0	1	8000	2000
221	106	58	1	3	2	2	7	32,2	0	1	8000	2000
222	106	58	2	3	2	2	1	10,10	0	1	8000	2000
223	106	58	3	3	2	2	12	3,0	0	1	8000	2000
224	107	59	0	3	2	2	5	20,2	0	1	8000	2000
225	107	59	1	3	2	2	7	32,2	0	1	8000	2000
226	107	59	2	3	2	2	1	10,10	0	1	8000	2000
227	107	59	3	3	2	2	12	4,0	0	1	8000	2000
228	108	60	0	3	2	2	5	20,2	0	1	8000	2000
229	108	60	1	3	2	2	7	32,2	0	1	8000	2000
230	108	60	2	3	2	2	1	10,10	0	1	8000	2000
231	108	60	3	3	2	2	12	5,0	0	1	8000	2000
232	109	61	0	3	2	2	5	40,2	0	1	8000	2000
233	109	61	1	3	2	2	7	52,2	0	1	8000	2000
234	109	61	2	3	2	2	1	110,10	0	1	8000	2000
235	109	61	3	3	2	2	12	6,0	0	1	8000	2000
236	109	61	4	3	2	2	78	30,1	0	1	8000	2000
237	110	62	0	3	2	2	5	40,2	0	1	8000	2000
238	110	62	1	3	2	2	7	52,2	0	1	8000	2000
239	110	62	2	3	2	2	1	110,10	0	1	8000	2000
240	110	62	3	3	2	2	12	7,0	0	1	8000	2000
241	110	62	4	3	2	2	78	30,1	0	1	8000	2000
242	111	63	0	3	2	2	5	40,2	0	1	8000	2000
243	111	63	1	3	2	2	7	52,2	0	1	8000	2000
244	111	63	2	3	2	2	1	110,10	0	1	8000	2000
245	111	63	3	3	2	2	12	8,0	0	1	8000	2000
246	111	63	4	3	2	2	78	30,1	0	1	8000	2000
247	112	64	0	3	2	2	5	40,2	0	1	8000	2000
248	112	64	1	3	2	2	7	52,2	0	1	8000	2000
249	112	64	2	3	2	2	1	110,10	0	1	8000	2000
250	112	64	3	3	2	2	12	9,0	0	1	8000	2000
251	112	64	4	3	2	2	78	30,1	0	1	8000	2000
252	113	65	0	3	2	2	5	40,2	0	1	8000	2000
253	113	65	1	3	2	2	7	52,2	0	1	8000	2000
254	113	65	2	3	2	2	1	110,10	0	1	8000	2000
255	113	65	3	3	2	2	12	10,0	0	1	8000	2000
256	113	65	4	3	2	2	78	30,1	0	1	8000	2000
257	114	66	0	3	2	2	5	60,2	0	1	8000	2000
258	114	66	1	3	2	2	7	75,5	0	1	8000	2000
259	114	66	2	3	2	2	1	210,10	0	1	8000	2000
260	114	66	3	3	2	2	12	11,1	0	1	8000	2000
261	114	66	4	3	2	2	78	40,2	0	1	8000	2000
262	114	66	5	3	2	2	74	10,5	0	1	8000	2000
263	115	67	0	3	2	2	5	60,2	0	1	8000	2000
264	115	67	1	3	2	2	7	75,5	0	1	8000	2000
265	115	67	2	3	2	2	1	210,10	0	1	8000	2000
266	115	67	3	3	2	2	12	11,1	0	1	8000	2000
267	115	67	4	3	2	2	78	40,2	0	1	8000	2000
268	115	67	5	3	2	2	74	-10,10	0	1	8000	2000
269	116	68	0	3	2	2	5	80,0	0	1	8000	2000
270	116	68	1	3	2	2	7	75,5	0	1	8000	2000
271	116	68	2	3	2	2	1	210,10	0	1	8000	2000
272	116	68	3	3	2	2	12	11,1	0	1	8000	2000
273	116	68	4	3	2	2	78	60,0	0	1	8000	2000
274	116	68	5	3	2	2	74	-10,10	0	1	8000	2000
275	117	57	0	3	2	3	5	10,1	0	1	8000	2000
276	117	57	1	3	2	3	7	12,2	0	1	8000	2000
277	118	58	0	3	2	3	5	20,2	0	1	8000	2000
278	118	58	1	3	2	3	7	32,2	0	1	8000	2000
279	118	58	2	3	2	3	1	10,10	0	1	8000	2000
280	118	58	3	3	2	3	12	3,0	0	1	8000	2000
281	119	59	0	3	2	3	5	20,2	0	1	8000	2000
282	119	59	1	3	2	3	7	32,2	0	1	8000	2000
283	119	59	2	3	2	3	1	10,10	0	1	8000	2000
284	119	59	3	3	2	3	12	4,0	0	1	8000	2000
285	120	60	0	3	2	3	5	20,2	0	1	8000	2000
286	120	60	1	3	2	3	7	32,2	0	1	8000	2000
287	120	60	2	3	2	3	1	10,10	0	1	8000	2000
288	120	60	3	3	2	3	12	5,0	0	1	8000	2000
289	121	61	0	3	2	3	5	40,2	0	1	8000	2000
290	121	61	1	3	2	3	7	52,2	0	1	8000	2000
291	121	61	2	3	2	3	1	110,10	0	1	8000	2000
292	121	61	3	3	2	3	12	6,0	0	1	8000	2000
293	121	61	4	3	2	3	78	30,1	0	1	8000	2000
294	122	62	0	3	2	3	5	40,2	0	1	8000	2000
295	122	62	1	3	2	3	7	52,2	0	1	8000	2000
296	122	62	2	3	2	3	1	110,10	0	1	8000	2000
297	122	62	3	3	2	3	12	7,0	0	1	8000	2000
298	122	62	4	3	2	3	78	30,1	0	1	8000	2000
299	123	63	0	3	2	3	5	40,2	0	1	8000	2000
300	123	63	1	3	2	3	7	52,2	0	1	8000	2000
301	123	63	2	3	2	3	1	110,10	0	1	8000	2000
302	123	63	3	3	2	3	12	8,0	0	1	8000	2000
303	123	63	4	3	2	3	78	30,1	0	1	8000	2000
304	124	64	0	3	2	3	5	40,2	0	1	8000	2000
305	124	64	1	3	2	3	7	52,2	0	1	8000	2000
306	124	64	2	3	2	3	1	110,10	0	1	8000	2000
307	124	64	3	3	2	3	12	9,0	0	1	8000	2000
308	124	64	4	3	2	3	78	30,1	0	1	8000	2000
309	125	65	0	3	2	3	5	40,2	0	1	8000	2000
310	125	65	1	3	2	3	7	52,2	0	1	8000	2000
311	125	65	2	3	2	3	1	110,10	0	1	8000	2000
312	125	65	3	3	2	3	12	10,0	0	1	8000	2000
313	125	65	4	3	2	3	78	30,1	0	1	8000	2000
314	126	66	0	3	2	3	5	60,2	0	1	8000	2000
315	126	66	1	3	2	3	7	75,5	0	1	8000	2000
316	126	66	2	3	2	3	1	210,10	0	1	8000	2000
317	126	66	3	3	2	3	12	11,1	0	1	8000	2000
318	126	66	4	3	2	3	78	40,2	0	1	8000	2000
319	126	66	5	3	2	3	74	10,5	0	1	8000	2000
320	127	67	0	3	2	3	5	60,2	0	1	8000	2000
321	127	67	1	3	2	3	7	75,5	0	1	8000	2000
322	127	67	2	3	2	3	1	210,10	0	1	8000	2000
323	127	67	3	3	2	3	12	11,1	0	1	8000	2000
324	127	67	4	3	2	3	78	40,2	0	1	8000	2000
325	127	67	5	3	2	3	74	-10,10	0	1	8000	2000
326	128	68	0	3	2	3	5	80,0	0	1	8000	2000
327	128	68	1	3	2	3	7	75,5	0	1	8000	2000
328	128	68	2	3	2	3	1	210,10	0	1	8000	2000
329	128	68	3	3	2	3	12	11,1	0	1	8000	2000
330	128	68	4	3	2	3	78	60,0	0	1	8000	2000
331	128	68	5	3	2	3	74	-10,10	0	1	8000	2000
332	129	69	0	1	0	0	8	4,0	0	1	8000	2000
333	130	70	0	3	3	0	6	1500,0	0	1	20000	280000
334	130	70	1	3	3	0	79	700,0	0	1	20000	280000
335	131	71	0	3	4	0	36	8000,0	0	1	10000	280000

[Item]	Item_ID
0	33555594

[Limit]	Assistant_ID	max_grade	max_level
0	1	1	1
1	2	1	1
2	3	1	1
3	4	1	1
4	5	1	1
5	6	1	1
6	7	1	1
7	8	1	1
8	9	1	1
9	10	1	1
10	11	1	1
11	12	1	1
12	13	1	1
13	14	1	1
14	15	1	1
15	16	1	1
16	17	1	1
17	18	1	1
18	19	1	1
19	20	1	1
20	21	1	1
21	22	1	1
22	23	1	1
23	24	1	1
24	25	1	1
25	26	4	10
26	27	4	10
27	28	4	10
28	29	4	10

[Assistant_Create]	assistant_id	create_item	value	result_item
0	26	33555565	30	33555561
1	27	33555566	30	33555562
2	28	33555567	30	33555563
3	29	33555568	30	33555564

[Assistant_lvup]	assistant_id	grade	level	level_item	value	success
1	1	1	1	0	0	0
2	2	1	1	0	0	0
3	3	1	1	0	0	0
4	4	1	1	0	0	0
5	5	1	1	0	0	0
6	6	1	1	0	0	0
7	7	1	1	0	0	0
8	8	1	1	0	0	0
9	9	1	1	0	0	0
10	10	1	1	0	0	0
11	11	1	1	0	0	0
12	12	1	1	0	0	0
13	13	1	1	0	0	0
14	14	1	1	0	0	0
15	15	1	1	0	0	0
16	16	1	1	0	0	0
17	17	1	1	0	0	0
18	18	1	1	0	0	0
19	19	1	1	0	0	0
20	20	1	1	0	0	0
21	21	1	1	0	0	0
22	22	1	1	0	0	0
23	23	1	1	0	0	0
24	24	1	1	0	0	0
25	25	1	1	0	0	0
26	26	1	1	33555565	5	1000
27	26	1	2	33555565	5	1000
28	26	1	3	33555565	10	1000
29	26	1	4	33555565	10	1000
30	26	1	5	33555565	15	1000
31	26	1	6	33555565	15	1000
32	26	1	7	33555565	20	1000
33	26	1	8	33555565	25	1000
34	26	1	9	33555565	30	1000
35	26	1	10	33555565	0	0
36	26	2	1	33555565	5	1000
37	26	2	2	33555565	5	1000
38	26	2	3	33555565	10	1000
39	26	2	4	33555565	10	1000
40	26	2	5	33555565	15	1000
41	26	2	6	33555565	15	1000
42	26	2	7	33555565	20	1000
43	26	2	8	33555565	25	1000
44	26	2	9	33555565	30	1000
45	26	2	10	33555565	0	0
46	26	3	1	33555565	5	1000
47	26	3	2	33555565	5	1000
48	26	3	3	33555565	10	1000
49	26	3	4	33555565	10	1000
50	26	3	5	33555565	15	1000
51	26	3	6	33555565	15	1000
52	26	3	7	33555565	20	1000
53	26	3	8	33555565	25	1000
54	26	3	9	33555565	30	1000
55	26	3	10	33555565	0	0
56	26	4	1	33555565	5	1000
57	26	4	2	33555565	5	1000
58	26	4	3	33555565	10	1000
59	26	4	4	33555565	10	1000
60	26	4	5	33555565	15	1000
61	26	4	6	33555565	15	1000
62	26	4	7	33555565	20	1000
63	26	4	8	33555565	25	1000
64	26	4	9	33555565	30	1000
65	26	4	10	33555565	0	0
66	27	1	1	33555566	5	1000
67	27	1	2	33555566	5	1000
68	27	1	3	33555566	10	1000
69	27	1	4	33555566	10	1000
70	27	1	5	33555566	15	1000
71	27	1	6	33555566	15	1000
72	27	1	7	33555566	20	1000
73	27	1	8	33555566	25	1000
74	27	1	9	33555566	30	1000
75	27	1	10	33555566	0	0
76	27	2	1	33555566	5	1000
77	27	2	2	33555566	5	1000
78	27	2	3	33555566	10	1000
79	27	2	4	33555566	10	1000
80	27	2	5	33555566	15	1000
81	27	2	6	33555566	15	1000
82	27	2	7	33555566	20	1000
83	27	2	8	33555566	25	1000
84	27	2	9	33555566	30	1000
85	27	2	10	33555566	0	0
86	27	3	1	33555566	5	1000
87	27	3	2	33555566	5	1000
88	27	3	3	33555566	10	1000
89	27	3	4	33555566	10	1000
90	27	3	5	33555566	15	1000
91	27	3	6	33555566	15	1000
92	27	3	7	33555566	20	1000
93	27	3	8	33555566	25	1000
94	27	3	9	33555566	30	1000
95	27	3	10	33555566	0	0
96	27	4	1	33555566	5	1000
97	27	4	2	33555566	5	1000
98	27	4	3	33555566	10	1000
99	27	4	4	33555566	10	1000
100	27	4	5	33555566	15	1000
101	27	4	6	33555566	15	1000
102	27	4	7	33555566	20	1000
103	27	4	8	33555566	25	1000
104	27	4	9	33555566	30	1000
105	27	4	10	33555566	0	0
106	28	1	1	33555567	5	1000
107	28	1	2	33555567	5	1000
108	28	1	3	33555567	10	1000
109	28	1	4	33555567	10	1000
110	28	1	5	33555567	15	1000
111	28	1	6	33555567	15	1000
112	28	1	7	33555567	20	1000
113	28	1	8	33555567	25	1000
114	28	1	9	33555567	30	1000
115	28	1	10	33555567	0	0
116	28	2	1	33555567	5	1000
117	28	2	2	33555567	5	1000
118	28	2	3	33555567	10	1000
119	28	2	4	33555567	10	1000
120	28	2	5	33555567	15	1000
121	28	2	6	33555567	15	1000
122	28	2	7	33555567	20	1000
123	28	2	8	33555567	25	1000
124	28	2	9	33555567	30	1000
125	28	2	10	33555567	0	0
126	28	3	1	33555567	5	1000
127	28	3	2	33555567	5	1000
128	28	3	3	33555567	10	1000
129	28	3	4	33555567	10	1000
130	28	3	5	33555567	15	1000
131	28	3	6	33555567	15	1000
132	28	3	7	33555567	20	1000
133	28	3	8	33555567	25	1000
134	28	3	9	33555567	30	1000
135	28	3	10	33555567	0	0
136	28	4	1	33555567	5	1000
137	28	4	2	33555567	5	1000
138	28	4	3	33555567	10	1000
139	28	4	4	33555567	10	1000
140	28	4	5	33555567	15	1000
141	28	4	6	33555567	15	1000
142	28	4	7	33555567	20	1000
143	28	4	8	33555567	25	1000
144	28	4	9	33555567	30	1000
145	28	4	10	33555567	0	0
146	29	1	1	33555568	5	1000
147	29	1	2	33555568	5	1000
148	29	1	3	33555568	10	1000
149	29	1	4	33555568	10	1000
150	29	1	5	33555568	15	1000
151	29	1	6	33555568	15	1000
152	29	1	7	33555568	20	1000
153	29	1	8	33555568	25	1000
154	29	1	9	33555568	30	1000
155	29	1	10	33555568	0	0
156	29	2	1	33555568	5	1000
157	29	2	2	33555568	5	1000
158	29	2	3	33555568	10	1000
159	29	2	4	33555568	10	1000
160	29	2	5	33555568	15	1000
161	29	2	6	33555568	15	1000
162	29	2	7	33555568	20	1000
163	29	2	8	33555568	25	1000
164	29	2	9	33555568	30	1000
165	29	2	10	33555568	0	0
166	29	3	1	33555568	5	1000
167	29	3	2	33555568	5	1000
168	29	3	3	33555568	10	1000
169	29	3	4	33555568	10	1000
170	29	3	5	33555568	15	1000
171	29	3	6	33555568	15	1000
172	29	3	7	33555568	20	1000
173	29	3	8	33555568	25	1000
174	29	3	9	33555568	30	1000
175	29	3	10	33555568	0	0
176	29	4	1	33555568	5	1000
177	29	4	2	33555568	5	1000
178	29	4	3	33555568	10	1000
179	29	4	4	33555568	10	1000
180	29	4	5	33555568	15	1000
181	29	4	6	33555568	15	1000
182	29	4	7	33555568	20	1000
183	29	4	8	33555568	25	1000
184	29	4	9	33555568	30	1000
185	29	4	10	33555568	0	0

[Assistant_gradeup]	assistant_id	grade	grade_item	value	success
0	26	1	33555560	20	1000
1	26	2	33555560	50	1000
2	26	3	33555560	80	1000
3	26	4	33555560	0	0
4	27	1	33555560	20	1000
5	27	2	33555560	50	1000
6	27	3	33555560	80	1000
7	27	4	33555560	0	0
8	28	1	33555560	20	1000
9	28	2	33555560	50	1000
10	28	3	33555560	80	1000
11	28	4	33555560	0	0
12	29	1	33555560	20	1000
13	29	2	33555560	50	1000
14	29	3	33555560	80	1000
15	29	4	33555560	0	0

[Assistant_trigger]	Trigger_ID	Value
0	3	221
1	3	214
2	3	226
3	3	274
4	3	251
5	3	268
6	3	178
7	3	573
8	3	606
9	3	607
10	3	609
11	3	610
12	3	611
13	3	612
14	3	613
15	3	614
16	3	684
17	3	685
18	4	674
19	4	2456
20	4	2457
21	4	2458
22	4	2459
